\* Problem: ss2 *\

Minimize
 deadline_not_accomplished: + y(1) + y(2) + y(3) + y(4) + y(5) + y(6)
 + y(7) + y(8) + y(9) + y(10) + y(11) + y(12) + y(13) + y(14) + y(15)
 + y(16) + y(17) + y(18) + y(19) + y(20)

Subject To
 loop(1,2): + x(1,2) + x(2,1) = 1
 loop(1,3): + x(1,3) + x(3,1) = 1
 loop(1,4): + x(1,4) + x(4,1) = 1
 loop(1,5): + x(1,5) + x(5,1) = 1
 loop(1,6): + x(1,6) + x(6,1) = 1
 loop(1,7): + x(1,7) + x(7,1) = 1
 loop(1,8): + x(1,8) + x(8,1) = 1
 loop(1,9): + x(1,9) + x(9,1) = 1
 loop(1,10): + x(1,10) + x(10,1) = 1
 loop(1,11): + x(1,11) + x(11,1) = 1
 loop(1,12): + x(1,12) + x(12,1) = 1
 loop(1,13): + x(1,13) + x(13,1) = 1
 loop(1,14): + x(1,14) + x(14,1) = 1
 loop(1,15): + x(1,15) + x(15,1) = 1
 loop(1,16): + x(1,16) + x(16,1) = 1
 loop(1,17): + x(1,17) + x(17,1) = 1
 loop(1,18): + x(1,18) + x(18,1) = 1
 loop(1,19): + x(1,19) + x(19,1) = 1
 loop(1,20): + x(1,20) + x(20,1) = 1
 loop(2,1): + x(1,2) + x(2,1) = 1
 loop(2,3): + x(2,3) + x(3,2) = 1
 loop(2,4): + x(2,4) + x(4,2) = 1
 loop(2,5): + x(2,5) + x(5,2) = 1
 loop(2,6): + x(2,6) + x(6,2) = 1
 loop(2,7): + x(2,7) + x(7,2) = 1
 loop(2,8): + x(2,8) + x(8,2) = 1
 loop(2,9): + x(2,9) + x(9,2) = 1
 loop(2,10): + x(2,10) + x(10,2) = 1
 loop(2,11): + x(2,11) + x(11,2) = 1
 loop(2,12): + x(2,12) + x(12,2) = 1
 loop(2,13): + x(2,13) + x(13,2) = 1
 loop(2,14): + x(2,14) + x(14,2) = 1
 loop(2,15): + x(2,15) + x(15,2) = 1
 loop(2,16): + x(2,16) + x(16,2) = 1
 loop(2,17): + x(2,17) + x(17,2) = 1
 loop(2,18): + x(2,18) + x(18,2) = 1
 loop(2,19): + x(2,19) + x(19,2) = 1
 loop(2,20): + x(2,20) + x(20,2) = 1
 loop(3,1): + x(1,3) + x(3,1) = 1
 loop(3,2): + x(2,3) + x(3,2) = 1
 loop(3,4): + x(3,4) + x(4,3) = 1
 loop(3,5): + x(3,5) + x(5,3) = 1
 loop(3,6): + x(3,6) + x(6,3) = 1
 loop(3,7): + x(3,7) + x(7,3) = 1
 loop(3,8): + x(3,8) + x(8,3) = 1
 loop(3,9): + x(3,9) + x(9,3) = 1
 loop(3,10): + x(3,10) + x(10,3) = 1
 loop(3,11): + x(3,11) + x(11,3) = 1
 loop(3,12): + x(3,12) + x(12,3) = 1
 loop(3,13): + x(3,13) + x(13,3) = 1
 loop(3,14): + x(3,14) + x(14,3) = 1
 loop(3,15): + x(3,15) + x(15,3) = 1
 loop(3,16): + x(3,16) + x(16,3) = 1
 loop(3,17): + x(3,17) + x(17,3) = 1
 loop(3,18): + x(3,18) + x(18,3) = 1
 loop(3,19): + x(3,19) + x(19,3) = 1
 loop(3,20): + x(3,20) + x(20,3) = 1
 loop(4,1): + x(1,4) + x(4,1) = 1
 loop(4,2): + x(2,4) + x(4,2) = 1
 loop(4,3): + x(3,4) + x(4,3) = 1
 loop(4,5): + x(4,5) + x(5,4) = 1
 loop(4,6): + x(4,6) + x(6,4) = 1
 loop(4,7): + x(4,7) + x(7,4) = 1
 loop(4,8): + x(4,8) + x(8,4) = 1
 loop(4,9): + x(4,9) + x(9,4) = 1
 loop(4,10): + x(4,10) + x(10,4) = 1
 loop(4,11): + x(4,11) + x(11,4) = 1
 loop(4,12): + x(4,12) + x(12,4) = 1
 loop(4,13): + x(4,13) + x(13,4) = 1
 loop(4,14): + x(4,14) + x(14,4) = 1
 loop(4,15): + x(4,15) + x(15,4) = 1
 loop(4,16): + x(4,16) + x(16,4) = 1
 loop(4,17): + x(4,17) + x(17,4) = 1
 loop(4,18): + x(4,18) + x(18,4) = 1
 loop(4,19): + x(4,19) + x(19,4) = 1
 loop(4,20): + x(4,20) + x(20,4) = 1
 loop(5,1): + x(1,5) + x(5,1) = 1
 loop(5,2): + x(2,5) + x(5,2) = 1
 loop(5,3): + x(3,5) + x(5,3) = 1
 loop(5,4): + x(4,5) + x(5,4) = 1
 loop(5,6): + x(5,6) + x(6,5) = 1
 loop(5,7): + x(5,7) + x(7,5) = 1
 loop(5,8): + x(5,8) + x(8,5) = 1
 loop(5,9): + x(5,9) + x(9,5) = 1
 loop(5,10): + x(5,10) + x(10,5) = 1
 loop(5,11): + x(5,11) + x(11,5) = 1
 loop(5,12): + x(5,12) + x(12,5) = 1
 loop(5,13): + x(5,13) + x(13,5) = 1
 loop(5,14): + x(5,14) + x(14,5) = 1
 loop(5,15): + x(5,15) + x(15,5) = 1
 loop(5,16): + x(5,16) + x(16,5) = 1
 loop(5,17): + x(5,17) + x(17,5) = 1
 loop(5,18): + x(5,18) + x(18,5) = 1
 loop(5,19): + x(5,19) + x(19,5) = 1
 loop(5,20): + x(5,20) + x(20,5) = 1
 loop(6,1): + x(1,6) + x(6,1) = 1
 loop(6,2): + x(2,6) + x(6,2) = 1
 loop(6,3): + x(3,6) + x(6,3) = 1
 loop(6,4): + x(4,6) + x(6,4) = 1
 loop(6,5): + x(5,6) + x(6,5) = 1
 loop(6,7): + x(6,7) + x(7,6) = 1
 loop(6,8): + x(6,8) + x(8,6) = 1
 loop(6,9): + x(6,9) + x(9,6) = 1
 loop(6,10): + x(6,10) + x(10,6) = 1
 loop(6,11): + x(6,11) + x(11,6) = 1
 loop(6,12): + x(6,12) + x(12,6) = 1
 loop(6,13): + x(6,13) + x(13,6) = 1
 loop(6,14): + x(6,14) + x(14,6) = 1
 loop(6,15): + x(6,15) + x(15,6) = 1
 loop(6,16): + x(6,16) + x(16,6) = 1
 loop(6,17): + x(6,17) + x(17,6) = 1
 loop(6,18): + x(6,18) + x(18,6) = 1
 loop(6,19): + x(6,19) + x(19,6) = 1
 loop(6,20): + x(6,20) + x(20,6) = 1
 loop(7,1): + x(1,7) + x(7,1) = 1
 loop(7,2): + x(2,7) + x(7,2) = 1
 loop(7,3): + x(3,7) + x(7,3) = 1
 loop(7,4): + x(4,7) + x(7,4) = 1
 loop(7,5): + x(5,7) + x(7,5) = 1
 loop(7,6): + x(6,7) + x(7,6) = 1
 loop(7,8): + x(7,8) + x(8,7) = 1
 loop(7,9): + x(7,9) + x(9,7) = 1
 loop(7,10): + x(7,10) + x(10,7) = 1
 loop(7,11): + x(7,11) + x(11,7) = 1
 loop(7,12): + x(7,12) + x(12,7) = 1
 loop(7,13): + x(7,13) + x(13,7) = 1
 loop(7,14): + x(7,14) + x(14,7) = 1
 loop(7,15): + x(7,15) + x(15,7) = 1
 loop(7,16): + x(7,16) + x(16,7) = 1
 loop(7,17): + x(7,17) + x(17,7) = 1
 loop(7,18): + x(7,18) + x(18,7) = 1
 loop(7,19): + x(7,19) + x(19,7) = 1
 loop(7,20): + x(7,20) + x(20,7) = 1
 loop(8,1): + x(1,8) + x(8,1) = 1
 loop(8,2): + x(2,8) + x(8,2) = 1
 loop(8,3): + x(3,8) + x(8,3) = 1
 loop(8,4): + x(4,8) + x(8,4) = 1
 loop(8,5): + x(5,8) + x(8,5) = 1
 loop(8,6): + x(6,8) + x(8,6) = 1
 loop(8,7): + x(7,8) + x(8,7) = 1
 loop(8,9): + x(8,9) + x(9,8) = 1
 loop(8,10): + x(8,10) + x(10,8) = 1
 loop(8,11): + x(8,11) + x(11,8) = 1
 loop(8,12): + x(8,12) + x(12,8) = 1
 loop(8,13): + x(8,13) + x(13,8) = 1
 loop(8,14): + x(8,14) + x(14,8) = 1
 loop(8,15): + x(8,15) + x(15,8) = 1
 loop(8,16): + x(8,16) + x(16,8) = 1
 loop(8,17): + x(8,17) + x(17,8) = 1
 loop(8,18): + x(8,18) + x(18,8) = 1
 loop(8,19): + x(8,19) + x(19,8) = 1
 loop(8,20): + x(8,20) + x(20,8) = 1
 loop(9,1): + x(1,9) + x(9,1) = 1
 loop(9,2): + x(2,9) + x(9,2) = 1
 loop(9,3): + x(3,9) + x(9,3) = 1
 loop(9,4): + x(4,9) + x(9,4) = 1
 loop(9,5): + x(5,9) + x(9,5) = 1
 loop(9,6): + x(6,9) + x(9,6) = 1
 loop(9,7): + x(7,9) + x(9,7) = 1
 loop(9,8): + x(8,9) + x(9,8) = 1
 loop(9,10): + x(9,10) + x(10,9) = 1
 loop(9,11): + x(9,11) + x(11,9) = 1
 loop(9,12): + x(9,12) + x(12,9) = 1
 loop(9,13): + x(9,13) + x(13,9) = 1
 loop(9,14): + x(9,14) + x(14,9) = 1
 loop(9,15): + x(9,15) + x(15,9) = 1
 loop(9,16): + x(9,16) + x(16,9) = 1
 loop(9,17): + x(9,17) + x(17,9) = 1
 loop(9,18): + x(9,18) + x(18,9) = 1
 loop(9,19): + x(9,19) + x(19,9) = 1
 loop(9,20): + x(9,20) + x(20,9) = 1
 loop(10,1): + x(1,10) + x(10,1) = 1
 loop(10,2): + x(2,10) + x(10,2) = 1
 loop(10,3): + x(3,10) + x(10,3) = 1
 loop(10,4): + x(4,10) + x(10,4) = 1
 loop(10,5): + x(5,10) + x(10,5) = 1
 loop(10,6): + x(6,10) + x(10,6) = 1
 loop(10,7): + x(7,10) + x(10,7) = 1
 loop(10,8): + x(8,10) + x(10,8) = 1
 loop(10,9): + x(9,10) + x(10,9) = 1
 loop(10,11): + x(10,11) + x(11,10) = 1
 loop(10,12): + x(10,12) + x(12,10) = 1
 loop(10,13): + x(10,13) + x(13,10) = 1
 loop(10,14): + x(10,14) + x(14,10) = 1
 loop(10,15): + x(10,15) + x(15,10) = 1
 loop(10,16): + x(10,16) + x(16,10) = 1
 loop(10,17): + x(10,17) + x(17,10) = 1
 loop(10,18): + x(10,18) + x(18,10) = 1
 loop(10,19): + x(10,19) + x(19,10) = 1
 loop(10,20): + x(10,20) + x(20,10) = 1
 loop(11,1): + x(1,11) + x(11,1) = 1
 loop(11,2): + x(2,11) + x(11,2) = 1
 loop(11,3): + x(3,11) + x(11,3) = 1
 loop(11,4): + x(4,11) + x(11,4) = 1
 loop(11,5): + x(5,11) + x(11,5) = 1
 loop(11,6): + x(6,11) + x(11,6) = 1
 loop(11,7): + x(7,11) + x(11,7) = 1
 loop(11,8): + x(8,11) + x(11,8) = 1
 loop(11,9): + x(9,11) + x(11,9) = 1
 loop(11,10): + x(10,11) + x(11,10) = 1
 loop(11,12): + x(11,12) + x(12,11) = 1
 loop(11,13): + x(11,13) + x(13,11) = 1
 loop(11,14): + x(11,14) + x(14,11) = 1
 loop(11,15): + x(11,15) + x(15,11) = 1
 loop(11,16): + x(11,16) + x(16,11) = 1
 loop(11,17): + x(11,17) + x(17,11) = 1
 loop(11,18): + x(11,18) + x(18,11) = 1
 loop(11,19): + x(11,19) + x(19,11) = 1
 loop(11,20): + x(11,20) + x(20,11) = 1
 loop(12,1): + x(1,12) + x(12,1) = 1
 loop(12,2): + x(2,12) + x(12,2) = 1
 loop(12,3): + x(3,12) + x(12,3) = 1
 loop(12,4): + x(4,12) + x(12,4) = 1
 loop(12,5): + x(5,12) + x(12,5) = 1
 loop(12,6): + x(6,12) + x(12,6) = 1
 loop(12,7): + x(7,12) + x(12,7) = 1
 loop(12,8): + x(8,12) + x(12,8) = 1
 loop(12,9): + x(9,12) + x(12,9) = 1
 loop(12,10): + x(10,12) + x(12,10) = 1
 loop(12,11): + x(11,12) + x(12,11) = 1
 loop(12,13): + x(12,13) + x(13,12) = 1
 loop(12,14): + x(12,14) + x(14,12) = 1
 loop(12,15): + x(12,15) + x(15,12) = 1
 loop(12,16): + x(12,16) + x(16,12) = 1
 loop(12,17): + x(12,17) + x(17,12) = 1
 loop(12,18): + x(12,18) + x(18,12) = 1
 loop(12,19): + x(12,19) + x(19,12) = 1
 loop(12,20): + x(12,20) + x(20,12) = 1
 loop(13,1): + x(1,13) + x(13,1) = 1
 loop(13,2): + x(2,13) + x(13,2) = 1
 loop(13,3): + x(3,13) + x(13,3) = 1
 loop(13,4): + x(4,13) + x(13,4) = 1
 loop(13,5): + x(5,13) + x(13,5) = 1
 loop(13,6): + x(6,13) + x(13,6) = 1
 loop(13,7): + x(7,13) + x(13,7) = 1
 loop(13,8): + x(8,13) + x(13,8) = 1
 loop(13,9): + x(9,13) + x(13,9) = 1
 loop(13,10): + x(10,13) + x(13,10) = 1
 loop(13,11): + x(11,13) + x(13,11) = 1
 loop(13,12): + x(12,13) + x(13,12) = 1
 loop(13,14): + x(13,14) + x(14,13) = 1
 loop(13,15): + x(13,15) + x(15,13) = 1
 loop(13,16): + x(13,16) + x(16,13) = 1
 loop(13,17): + x(13,17) + x(17,13) = 1
 loop(13,18): + x(13,18) + x(18,13) = 1
 loop(13,19): + x(13,19) + x(19,13) = 1
 loop(13,20): + x(13,20) + x(20,13) = 1
 loop(14,1): + x(1,14) + x(14,1) = 1
 loop(14,2): + x(2,14) + x(14,2) = 1
 loop(14,3): + x(3,14) + x(14,3) = 1
 loop(14,4): + x(4,14) + x(14,4) = 1
 loop(14,5): + x(5,14) + x(14,5) = 1
 loop(14,6): + x(6,14) + x(14,6) = 1
 loop(14,7): + x(7,14) + x(14,7) = 1
 loop(14,8): + x(8,14) + x(14,8) = 1
 loop(14,9): + x(9,14) + x(14,9) = 1
 loop(14,10): + x(10,14) + x(14,10) = 1
 loop(14,11): + x(11,14) + x(14,11) = 1
 loop(14,12): + x(12,14) + x(14,12) = 1
 loop(14,13): + x(13,14) + x(14,13) = 1
 loop(14,15): + x(14,15) + x(15,14) = 1
 loop(14,16): + x(14,16) + x(16,14) = 1
 loop(14,17): + x(14,17) + x(17,14) = 1
 loop(14,18): + x(14,18) + x(18,14) = 1
 loop(14,19): + x(14,19) + x(19,14) = 1
 loop(14,20): + x(14,20) + x(20,14) = 1
 loop(15,1): + x(1,15) + x(15,1) = 1
 loop(15,2): + x(2,15) + x(15,2) = 1
 loop(15,3): + x(3,15) + x(15,3) = 1
 loop(15,4): + x(4,15) + x(15,4) = 1
 loop(15,5): + x(5,15) + x(15,5) = 1
 loop(15,6): + x(6,15) + x(15,6) = 1
 loop(15,7): + x(7,15) + x(15,7) = 1
 loop(15,8): + x(8,15) + x(15,8) = 1
 loop(15,9): + x(9,15) + x(15,9) = 1
 loop(15,10): + x(10,15) + x(15,10) = 1
 loop(15,11): + x(11,15) + x(15,11) = 1
 loop(15,12): + x(12,15) + x(15,12) = 1
 loop(15,13): + x(13,15) + x(15,13) = 1
 loop(15,14): + x(14,15) + x(15,14) = 1
 loop(15,16): + x(15,16) + x(16,15) = 1
 loop(15,17): + x(15,17) + x(17,15) = 1
 loop(15,18): + x(15,18) + x(18,15) = 1
 loop(15,19): + x(15,19) + x(19,15) = 1
 loop(15,20): + x(15,20) + x(20,15) = 1
 loop(16,1): + x(1,16) + x(16,1) = 1
 loop(16,2): + x(2,16) + x(16,2) = 1
 loop(16,3): + x(3,16) + x(16,3) = 1
 loop(16,4): + x(4,16) + x(16,4) = 1
 loop(16,5): + x(5,16) + x(16,5) = 1
 loop(16,6): + x(6,16) + x(16,6) = 1
 loop(16,7): + x(7,16) + x(16,7) = 1
 loop(16,8): + x(8,16) + x(16,8) = 1
 loop(16,9): + x(9,16) + x(16,9) = 1
 loop(16,10): + x(10,16) + x(16,10) = 1
 loop(16,11): + x(11,16) + x(16,11) = 1
 loop(16,12): + x(12,16) + x(16,12) = 1
 loop(16,13): + x(13,16) + x(16,13) = 1
 loop(16,14): + x(14,16) + x(16,14) = 1
 loop(16,15): + x(15,16) + x(16,15) = 1
 loop(16,17): + x(16,17) + x(17,16) = 1
 loop(16,18): + x(16,18) + x(18,16) = 1
 loop(16,19): + x(16,19) + x(19,16) = 1
 loop(16,20): + x(16,20) + x(20,16) = 1
 loop(17,1): + x(1,17) + x(17,1) = 1
 loop(17,2): + x(2,17) + x(17,2) = 1
 loop(17,3): + x(3,17) + x(17,3) = 1
 loop(17,4): + x(4,17) + x(17,4) = 1
 loop(17,5): + x(5,17) + x(17,5) = 1
 loop(17,6): + x(6,17) + x(17,6) = 1
 loop(17,7): + x(7,17) + x(17,7) = 1
 loop(17,8): + x(8,17) + x(17,8) = 1
 loop(17,9): + x(9,17) + x(17,9) = 1
 loop(17,10): + x(10,17) + x(17,10) = 1
 loop(17,11): + x(11,17) + x(17,11) = 1
 loop(17,12): + x(12,17) + x(17,12) = 1
 loop(17,13): + x(13,17) + x(17,13) = 1
 loop(17,14): + x(14,17) + x(17,14) = 1
 loop(17,15): + x(15,17) + x(17,15) = 1
 loop(17,16): + x(16,17) + x(17,16) = 1
 loop(17,18): + x(17,18) + x(18,17) = 1
 loop(17,19): + x(17,19) + x(19,17) = 1
 loop(17,20): + x(17,20) + x(20,17) = 1
 loop(18,1): + x(1,18) + x(18,1) = 1
 loop(18,2): + x(2,18) + x(18,2) = 1
 loop(18,3): + x(3,18) + x(18,3) = 1
 loop(18,4): + x(4,18) + x(18,4) = 1
 loop(18,5): + x(5,18) + x(18,5) = 1
 loop(18,6): + x(6,18) + x(18,6) = 1
 loop(18,7): + x(7,18) + x(18,7) = 1
 loop(18,8): + x(8,18) + x(18,8) = 1
 loop(18,9): + x(9,18) + x(18,9) = 1
 loop(18,10): + x(10,18) + x(18,10) = 1
 loop(18,11): + x(11,18) + x(18,11) = 1
 loop(18,12): + x(12,18) + x(18,12) = 1
 loop(18,13): + x(13,18) + x(18,13) = 1
 loop(18,14): + x(14,18) + x(18,14) = 1
 loop(18,15): + x(15,18) + x(18,15) = 1
 loop(18,16): + x(16,18) + x(18,16) = 1
 loop(18,17): + x(17,18) + x(18,17) = 1
 loop(18,19): + x(18,19) + x(19,18) = 1
 loop(18,20): + x(18,20) + x(20,18) = 1
 loop(19,1): + x(1,19) + x(19,1) = 1
 loop(19,2): + x(2,19) + x(19,2) = 1
 loop(19,3): + x(3,19) + x(19,3) = 1
 loop(19,4): + x(4,19) + x(19,4) = 1
 loop(19,5): + x(5,19) + x(19,5) = 1
 loop(19,6): + x(6,19) + x(19,6) = 1
 loop(19,7): + x(7,19) + x(19,7) = 1
 loop(19,8): + x(8,19) + x(19,8) = 1
 loop(19,9): + x(9,19) + x(19,9) = 1
 loop(19,10): + x(10,19) + x(19,10) = 1
 loop(19,11): + x(11,19) + x(19,11) = 1
 loop(19,12): + x(12,19) + x(19,12) = 1
 loop(19,13): + x(13,19) + x(19,13) = 1
 loop(19,14): + x(14,19) + x(19,14) = 1
 loop(19,15): + x(15,19) + x(19,15) = 1
 loop(19,16): + x(16,19) + x(19,16) = 1
 loop(19,17): + x(17,19) + x(19,17) = 1
 loop(19,18): + x(18,19) + x(19,18) = 1
 loop(19,20): + x(19,20) + x(20,19) = 1
 loop(20,1): + x(1,20) + x(20,1) = 1
 loop(20,2): + x(2,20) + x(20,2) = 1
 loop(20,3): + x(3,20) + x(20,3) = 1
 loop(20,4): + x(4,20) + x(20,4) = 1
 loop(20,5): + x(5,20) + x(20,5) = 1
 loop(20,6): + x(6,20) + x(20,6) = 1
 loop(20,7): + x(7,20) + x(20,7) = 1
 loop(20,8): + x(8,20) + x(20,8) = 1
 loop(20,9): + x(9,20) + x(20,9) = 1
 loop(20,10): + x(10,20) + x(20,10) = 1
 loop(20,11): + x(11,20) + x(20,11) = 1
 loop(20,12): + x(12,20) + x(20,12) = 1
 loop(20,13): + x(13,20) + x(20,13) = 1
 loop(20,14): + x(14,20) + x(20,14) = 1
 loop(20,15): + x(15,20) + x(20,15) = 1
 loop(20,16): + x(16,20) + x(20,16) = 1
 loop(20,17): + x(17,20) + x(20,17) = 1
 loop(20,18): + x(18,20) + x(20,18) = 1
 loop(20,19): + x(19,20) + x(20,19) = 1
 order(12,15): + x(12,15) = 1
 order(8,12): + x(8,12) = 1
 order(11,17): + x(11,17) = 1
 order(14,17): + x(14,17) = 1
 order(19,20): + x(19,20) = 1
 order(18,19): + x(18,19) = 1
 order(9,13): + x(9,13) = 1
 order(8,16): + x(8,16) = 1
 order(16,18): + x(16,18) = 1
 order(18,20): + x(18,20) = 1
 order(11,16): + x(11,16) = 1
 order(8,14): + x(8,14) = 1
 order(16,19): + x(16,19) = 1
 order(10,16): + x(10,16) = 1
 order(4,14): + x(4,14) = 1
 order(15,20): + x(15,20) = 1
 order(5,6): + x(5,6) = 1
 order(9,11): + x(9,11) = 1
 order(17,20): + x(17,20) = 1
 order(13,19): + x(13,19) = 1
 order(11,12): + x(11,12) = 1
 order(11,15): + x(11,15) = 1
 order(11,14): + x(11,14) = 1
 order(3,16): + x(3,16) = 1
 order(7,15): + x(7,15) = 1
 order(13,18): + x(13,18) = 1
 order(11,20): + x(11,20) = 1
 order(8,18): + x(8,18) = 1
 order(2,8): + x(2,8) = 1
 order(10,11): + x(10,11) = 1
 order(11,19): + x(11,19) = 1
 order(9,10): + x(9,10) = 1
 order(2,13): + x(2,13) = 1
 order(12,16): + x(12,16) = 1
 order(13,15): + x(13,15) = 1
 order(9,19): + x(9,19) = 1
 order(10,13): + x(10,13) = 1
 order(15,17): + x(15,17) = 1
 order(1,15): + x(1,15) = 1
 order(3,9): + x(3,9) = 1
 order(10,18): + x(10,18) = 1
 order(6,10): + x(6,10) = 1
 order(14,20): + x(14,20) = 1
 order(4,8): + x(4,8) = 1
 order(7,13): + x(7,13) = 1
 order(6,13): + x(6,13) = 1
 order(2,10): + x(2,10) = 1
 order(10,15): + x(10,15) = 1
 order(6,11): + x(6,11) = 1
 order(2,12): + x(2,12) = 1
 order(11,13): + x(11,13) = 1
 order(14,16): + x(14,16) = 1
 order(2,3): + x(2,3) = 1
 order(15,18): + x(15,18) = 1
 order(3,10): + x(3,10) = 1
 order(7,18): + x(7,18) = 1
 order(15,16): + x(15,16) = 1
 order(8,19): + x(8,19) = 1
 ending(1): + 5 x(2,1) + 10 x(3,1) + 8 x(4,1) + 7 x(5,1) + 14 x(6,1)
 + 9 x(7,1) + 8 x(8,1) + 8 x(9,1) + 4 x(10,1) + 2 x(11,1) + 2 x(12,1)
 + 2 x(13,1) + 13 x(14,1) + 9 x(15,1) + 5 x(16,1) + 11 x(17,1)
 + 12 x(18,1) + x(19,1) + 11 x(20,1) - 143 y(1) <= 19
 ending(2): + x(1,2) + 10 x(3,2) + 8 x(4,2) + 7 x(5,2) + 14 x(6,2)
 + 9 x(7,2) + 8 x(8,2) + 8 x(9,2) + 4 x(10,2) + 2 x(11,2) + 2 x(12,2)
 + 2 x(13,2) + 13 x(14,2) + 9 x(15,2) + 5 x(16,2) + 11 x(17,2)
 + 12 x(18,2) + x(19,2) + 11 x(20,2) - 143 y(2) <= -1
 ending(3): + x(1,3) + 5 x(2,3) + 8 x(4,3) + 7 x(5,3) + 14 x(6,3)
 + 9 x(7,3) + 8 x(8,3) + 8 x(9,3) + 4 x(10,3) + 2 x(11,3) + 2 x(12,3)
 + 2 x(13,3) + 13 x(14,3) + 9 x(15,3) + 5 x(16,3) + 11 x(17,3)
 + 12 x(18,3) + x(19,3) + 11 x(20,3) - 143 y(3) <= 7
 ending(4): + x(1,4) + 5 x(2,4) + 10 x(3,4) + 7 x(5,4) + 14 x(6,4)
 + 9 x(7,4) + 8 x(8,4) + 8 x(9,4) + 4 x(10,4) + 2 x(11,4) + 2 x(12,4)
 + 2 x(13,4) + 13 x(14,4) + 9 x(15,4) + 5 x(16,4) + 11 x(17,4)
 + 12 x(18,4) + x(19,4) + 11 x(20,4) - 143 y(4) <= 14
 ending(5): + x(1,5) + 5 x(2,5) + 10 x(3,5) + 8 x(4,5) + 14 x(6,5)
 + 9 x(7,5) + 8 x(8,5) + 8 x(9,5) + 4 x(10,5) + 2 x(11,5) + 2 x(12,5)
 + 2 x(13,5) + 13 x(14,5) + 9 x(15,5) + 5 x(16,5) + 11 x(17,5)
 + 12 x(18,5) + x(19,5) + 11 x(20,5) - 143 y(5) <= -1
 ending(6): + x(1,6) + 5 x(2,6) + 10 x(3,6) + 8 x(4,6) + 7 x(5,6)
 + 9 x(7,6) + 8 x(8,6) + 8 x(9,6) + 4 x(10,6) + 2 x(11,6) + 2 x(12,6)
 + 2 x(13,6) + 13 x(14,6) + 9 x(15,6) + 5 x(16,6) + 11 x(17,6)
 + 12 x(18,6) + x(19,6) + 11 x(20,6) - 143 y(6) <= 15
 ending(7): + x(1,7) + 5 x(2,7) + 10 x(3,7) + 8 x(4,7) + 7 x(5,7)
 + 14 x(6,7) + 8 x(8,7) + 8 x(9,7) + 4 x(10,7) + 2 x(11,7) + 2 x(12,7)
 + 2 x(13,7) + 13 x(14,7) + 9 x(15,7) + 5 x(16,7) + 11 x(17,7)
 + 12 x(18,7) + x(19,7) + 11 x(20,7) - 143 y(7) <= 16
 ending(8): + x(1,8) + 5 x(2,8) + 10 x(3,8) + 8 x(4,8) + 7 x(5,8)
 + 14 x(6,8) + 9 x(7,8) + 8 x(9,8) + 4 x(10,8) + 2 x(11,8) + 2 x(12,8)
 + 2 x(13,8) + 13 x(14,8) + 9 x(15,8) + 5 x(16,8) + 11 x(17,8)
 + 12 x(18,8) + x(19,8) + 11 x(20,8) - 143 y(8) <= 9
 ending(9): + x(1,9) + 5 x(2,9) + 10 x(3,9) + 8 x(4,9) + 7 x(5,9)
 + 14 x(6,9) + 9 x(7,9) + 8 x(8,9) + 4 x(10,9) + 2 x(11,9) + 2 x(12,9)
 + 2 x(13,9) + 13 x(14,9) + 9 x(15,9) + 5 x(16,9) + 11 x(17,9)
 + 12 x(18,9) + x(19,9) + 11 x(20,9) - 143 y(9) <= 2
 ending(10): + x(1,10) + 5 x(2,10) + 10 x(3,10) + 8 x(4,10) + 7 x(5,10)
 + 14 x(6,10) + 9 x(7,10) + 8 x(8,10) + 8 x(9,10) + 2 x(11,10)
 + 2 x(12,10) + 2 x(13,10) + 13 x(14,10) + 9 x(15,10) + 5 x(16,10)
 + 11 x(17,10) + 12 x(18,10) + x(19,10) + 11 x(20,10) - 143 y(10) <= 26
 ending(11): + x(1,11) + 5 x(2,11) + 10 x(3,11) + 8 x(4,11) + 7 x(5,11)
 + 14 x(6,11) + 9 x(7,11) + 8 x(8,11) + 8 x(9,11) + 4 x(10,11)
 + 2 x(12,11) + 2 x(13,11) + 13 x(14,11) + 9 x(15,11) + 5 x(16,11)
 + 11 x(17,11) + 12 x(18,11) + x(19,11) + 11 x(20,11) - 143 y(11) <= 3
 ending(12): + x(1,12) + 5 x(2,12) + 10 x(3,12) + 8 x(4,12) + 7 x(5,12)
 + 14 x(6,12) + 9 x(7,12) + 8 x(8,12) + 8 x(9,12) + 4 x(10,12)
 + 2 x(11,12) + 2 x(13,12) + 13 x(14,12) + 9 x(15,12) + 5 x(16,12)
 + 11 x(17,12) + 12 x(18,12) + x(19,12) + 11 x(20,12) - 143 y(12) <= 24
 ending(13): + x(1,13) + 5 x(2,13) + 10 x(3,13) + 8 x(4,13) + 7 x(5,13)
 + 14 x(6,13) + 9 x(7,13) + 8 x(8,13) + 8 x(9,13) + 4 x(10,13)
 + 2 x(11,13) + 2 x(12,13) + 13 x(14,13) + 9 x(15,13) + 5 x(16,13)
 + 11 x(17,13) + 12 x(18,13) + x(19,13) + 11 x(20,13) - 143 y(13) <= -1
 ending(14): + x(1,14) + 5 x(2,14) + 10 x(3,14) + 8 x(4,14) + 7 x(5,14)
 + 14 x(6,14) + 9 x(7,14) + 8 x(8,14) + 8 x(9,14) + 4 x(10,14)
 + 2 x(11,14) + 2 x(12,14) + 2 x(13,14) + 9 x(15,14) + 5 x(16,14)
 + 11 x(17,14) + 12 x(18,14) + x(19,14) + 11 x(20,14) - 143 y(14) <= -2
 ending(15): + x(1,15) + 5 x(2,15) + 10 x(3,15) + 8 x(4,15) + 7 x(5,15)
 + 14 x(6,15) + 9 x(7,15) + 8 x(8,15) + 8 x(9,15) + 4 x(10,15)
 + 2 x(11,15) + 2 x(12,15) + 2 x(13,15) + 13 x(14,15) + 5 x(16,15)
 + 11 x(17,15) + 12 x(18,15) + x(19,15) + 11 x(20,15) - 143 y(15) <= 9
 ending(16): + x(1,16) + 5 x(2,16) + 10 x(3,16) + 8 x(4,16) + 7 x(5,16)
 + 14 x(6,16) + 9 x(7,16) + 8 x(8,16) + 8 x(9,16) + 4 x(10,16)
 + 2 x(11,16) + 2 x(12,16) + 2 x(13,16) + 13 x(14,16) + 9 x(15,16)
 + 11 x(17,16) + 12 x(18,16) + x(19,16) + 11 x(20,16) - 143 y(16) <= 10
 ending(17): + x(1,17) + 5 x(2,17) + 10 x(3,17) + 8 x(4,17) + 7 x(5,17)
 + 14 x(6,17) + 9 x(7,17) + 8 x(8,17) + 8 x(9,17) + 4 x(10,17)
 + 2 x(11,17) + 2 x(12,17) + 2 x(13,17) + 13 x(14,17) + 9 x(15,17)
 + 5 x(16,17) + 12 x(18,17) + x(19,17) + 11 x(20,17) - 143 y(17) <= 4
 ending(18): + x(1,18) + 5 x(2,18) + 10 x(3,18) + 8 x(4,18) + 7 x(5,18)
 + 14 x(6,18) + 9 x(7,18) + 8 x(8,18) + 8 x(9,18) + 4 x(10,18)
 + 2 x(11,18) + 2 x(12,18) + 2 x(13,18) + 13 x(14,18) + 9 x(15,18)
 + 5 x(16,18) + 11 x(17,18) + x(19,18) + 11 x(20,18) - 143 y(18) <= -6
 ending(19): + x(1,19) + 5 x(2,19) + 10 x(3,19) + 8 x(4,19) + 7 x(5,19)
 + 14 x(6,19) + 9 x(7,19) + 8 x(8,19) + 8 x(9,19) + 4 x(10,19)
 + 2 x(11,19) + 2 x(12,19) + 2 x(13,19) + 13 x(14,19) + 9 x(15,19)
 + 5 x(16,19) + 11 x(17,19) + 12 x(18,19) + 11 x(20,19) - 143 y(19)
 <= 14
 ending(20): + x(1,20) + 5 x(2,20) + 10 x(3,20) + 8 x(4,20) + 7 x(5,20)
 + 14 x(6,20) + 9 x(7,20) + 8 x(8,20) + 8 x(9,20) + 4 x(10,20)
 + 2 x(11,20) + 2 x(12,20) + 2 x(13,20) + 13 x(14,20) + 9 x(15,20)
 + 5 x(16,20) + 11 x(17,20) + 12 x(18,20) + x(19,20) - 143 y(20) <= 15

Bounds
 0 <= x(1,2) <= 1
 0 <= x(2,1) <= 1
 0 <= x(1,3) <= 1
 0 <= x(3,1) <= 1
 0 <= x(1,4) <= 1
 0 <= x(4,1) <= 1
 0 <= x(1,5) <= 1
 0 <= x(5,1) <= 1
 0 <= x(1,6) <= 1
 0 <= x(6,1) <= 1
 0 <= x(1,7) <= 1
 0 <= x(7,1) <= 1
 0 <= x(1,8) <= 1
 0 <= x(8,1) <= 1
 0 <= x(1,9) <= 1
 0 <= x(9,1) <= 1
 0 <= x(1,10) <= 1
 0 <= x(10,1) <= 1
 0 <= x(1,11) <= 1
 0 <= x(11,1) <= 1
 0 <= x(1,12) <= 1
 0 <= x(12,1) <= 1
 0 <= x(1,13) <= 1
 0 <= x(13,1) <= 1
 0 <= x(1,14) <= 1
 0 <= x(14,1) <= 1
 0 <= x(1,15) <= 1
 0 <= x(15,1) <= 1
 0 <= x(1,16) <= 1
 0 <= x(16,1) <= 1
 0 <= x(1,17) <= 1
 0 <= x(17,1) <= 1
 0 <= x(1,18) <= 1
 0 <= x(18,1) <= 1
 0 <= x(1,19) <= 1
 0 <= x(19,1) <= 1
 0 <= x(1,20) <= 1
 0 <= x(20,1) <= 1
 0 <= x(2,3) <= 1
 0 <= x(3,2) <= 1
 0 <= x(2,4) <= 1
 0 <= x(4,2) <= 1
 0 <= x(2,5) <= 1
 0 <= x(5,2) <= 1
 0 <= x(2,6) <= 1
 0 <= x(6,2) <= 1
 0 <= x(2,7) <= 1
 0 <= x(7,2) <= 1
 0 <= x(2,8) <= 1
 0 <= x(8,2) <= 1
 0 <= x(2,9) <= 1
 0 <= x(9,2) <= 1
 0 <= x(2,10) <= 1
 0 <= x(10,2) <= 1
 0 <= x(2,11) <= 1
 0 <= x(11,2) <= 1
 0 <= x(2,12) <= 1
 0 <= x(12,2) <= 1
 0 <= x(2,13) <= 1
 0 <= x(13,2) <= 1
 0 <= x(2,14) <= 1
 0 <= x(14,2) <= 1
 0 <= x(2,15) <= 1
 0 <= x(15,2) <= 1
 0 <= x(2,16) <= 1
 0 <= x(16,2) <= 1
 0 <= x(2,17) <= 1
 0 <= x(17,2) <= 1
 0 <= x(2,18) <= 1
 0 <= x(18,2) <= 1
 0 <= x(2,19) <= 1
 0 <= x(19,2) <= 1
 0 <= x(2,20) <= 1
 0 <= x(20,2) <= 1
 0 <= x(3,4) <= 1
 0 <= x(4,3) <= 1
 0 <= x(3,5) <= 1
 0 <= x(5,3) <= 1
 0 <= x(3,6) <= 1
 0 <= x(6,3) <= 1
 0 <= x(3,7) <= 1
 0 <= x(7,3) <= 1
 0 <= x(3,8) <= 1
 0 <= x(8,3) <= 1
 0 <= x(3,9) <= 1
 0 <= x(9,3) <= 1
 0 <= x(3,10) <= 1
 0 <= x(10,3) <= 1
 0 <= x(3,11) <= 1
 0 <= x(11,3) <= 1
 0 <= x(3,12) <= 1
 0 <= x(12,3) <= 1
 0 <= x(3,13) <= 1
 0 <= x(13,3) <= 1
 0 <= x(3,14) <= 1
 0 <= x(14,3) <= 1
 0 <= x(3,15) <= 1
 0 <= x(15,3) <= 1
 0 <= x(3,16) <= 1
 0 <= x(16,3) <= 1
 0 <= x(3,17) <= 1
 0 <= x(17,3) <= 1
 0 <= x(3,18) <= 1
 0 <= x(18,3) <= 1
 0 <= x(3,19) <= 1
 0 <= x(19,3) <= 1
 0 <= x(3,20) <= 1
 0 <= x(20,3) <= 1
 0 <= x(4,5) <= 1
 0 <= x(5,4) <= 1
 0 <= x(4,6) <= 1
 0 <= x(6,4) <= 1
 0 <= x(4,7) <= 1
 0 <= x(7,4) <= 1
 0 <= x(4,8) <= 1
 0 <= x(8,4) <= 1
 0 <= x(4,9) <= 1
 0 <= x(9,4) <= 1
 0 <= x(4,10) <= 1
 0 <= x(10,4) <= 1
 0 <= x(4,11) <= 1
 0 <= x(11,4) <= 1
 0 <= x(4,12) <= 1
 0 <= x(12,4) <= 1
 0 <= x(4,13) <= 1
 0 <= x(13,4) <= 1
 0 <= x(4,14) <= 1
 0 <= x(14,4) <= 1
 0 <= x(4,15) <= 1
 0 <= x(15,4) <= 1
 0 <= x(4,16) <= 1
 0 <= x(16,4) <= 1
 0 <= x(4,17) <= 1
 0 <= x(17,4) <= 1
 0 <= x(4,18) <= 1
 0 <= x(18,4) <= 1
 0 <= x(4,19) <= 1
 0 <= x(19,4) <= 1
 0 <= x(4,20) <= 1
 0 <= x(20,4) <= 1
 0 <= x(5,6) <= 1
 0 <= x(6,5) <= 1
 0 <= x(5,7) <= 1
 0 <= x(7,5) <= 1
 0 <= x(5,8) <= 1
 0 <= x(8,5) <= 1
 0 <= x(5,9) <= 1
 0 <= x(9,5) <= 1
 0 <= x(5,10) <= 1
 0 <= x(10,5) <= 1
 0 <= x(5,11) <= 1
 0 <= x(11,5) <= 1
 0 <= x(5,12) <= 1
 0 <= x(12,5) <= 1
 0 <= x(5,13) <= 1
 0 <= x(13,5) <= 1
 0 <= x(5,14) <= 1
 0 <= x(14,5) <= 1
 0 <= x(5,15) <= 1
 0 <= x(15,5) <= 1
 0 <= x(5,16) <= 1
 0 <= x(16,5) <= 1
 0 <= x(5,17) <= 1
 0 <= x(17,5) <= 1
 0 <= x(5,18) <= 1
 0 <= x(18,5) <= 1
 0 <= x(5,19) <= 1
 0 <= x(19,5) <= 1
 0 <= x(5,20) <= 1
 0 <= x(20,5) <= 1
 0 <= x(6,7) <= 1
 0 <= x(7,6) <= 1
 0 <= x(6,8) <= 1
 0 <= x(8,6) <= 1
 0 <= x(6,9) <= 1
 0 <= x(9,6) <= 1
 0 <= x(6,10) <= 1
 0 <= x(10,6) <= 1
 0 <= x(6,11) <= 1
 0 <= x(11,6) <= 1
 0 <= x(6,12) <= 1
 0 <= x(12,6) <= 1
 0 <= x(6,13) <= 1
 0 <= x(13,6) <= 1
 0 <= x(6,14) <= 1
 0 <= x(14,6) <= 1
 0 <= x(6,15) <= 1
 0 <= x(15,6) <= 1
 0 <= x(6,16) <= 1
 0 <= x(16,6) <= 1
 0 <= x(6,17) <= 1
 0 <= x(17,6) <= 1
 0 <= x(6,18) <= 1
 0 <= x(18,6) <= 1
 0 <= x(6,19) <= 1
 0 <= x(19,6) <= 1
 0 <= x(6,20) <= 1
 0 <= x(20,6) <= 1
 0 <= x(7,8) <= 1
 0 <= x(8,7) <= 1
 0 <= x(7,9) <= 1
 0 <= x(9,7) <= 1
 0 <= x(7,10) <= 1
 0 <= x(10,7) <= 1
 0 <= x(7,11) <= 1
 0 <= x(11,7) <= 1
 0 <= x(7,12) <= 1
 0 <= x(12,7) <= 1
 0 <= x(7,13) <= 1
 0 <= x(13,7) <= 1
 0 <= x(7,14) <= 1
 0 <= x(14,7) <= 1
 0 <= x(7,15) <= 1
 0 <= x(15,7) <= 1
 0 <= x(7,16) <= 1
 0 <= x(16,7) <= 1
 0 <= x(7,17) <= 1
 0 <= x(17,7) <= 1
 0 <= x(7,18) <= 1
 0 <= x(18,7) <= 1
 0 <= x(7,19) <= 1
 0 <= x(19,7) <= 1
 0 <= x(7,20) <= 1
 0 <= x(20,7) <= 1
 0 <= x(8,9) <= 1
 0 <= x(9,8) <= 1
 0 <= x(8,10) <= 1
 0 <= x(10,8) <= 1
 0 <= x(8,11) <= 1
 0 <= x(11,8) <= 1
 0 <= x(8,12) <= 1
 0 <= x(12,8) <= 1
 0 <= x(8,13) <= 1
 0 <= x(13,8) <= 1
 0 <= x(8,14) <= 1
 0 <= x(14,8) <= 1
 0 <= x(8,15) <= 1
 0 <= x(15,8) <= 1
 0 <= x(8,16) <= 1
 0 <= x(16,8) <= 1
 0 <= x(8,17) <= 1
 0 <= x(17,8) <= 1
 0 <= x(8,18) <= 1
 0 <= x(18,8) <= 1
 0 <= x(8,19) <= 1
 0 <= x(19,8) <= 1
 0 <= x(8,20) <= 1
 0 <= x(20,8) <= 1
 0 <= x(9,10) <= 1
 0 <= x(10,9) <= 1
 0 <= x(9,11) <= 1
 0 <= x(11,9) <= 1
 0 <= x(9,12) <= 1
 0 <= x(12,9) <= 1
 0 <= x(9,13) <= 1
 0 <= x(13,9) <= 1
 0 <= x(9,14) <= 1
 0 <= x(14,9) <= 1
 0 <= x(9,15) <= 1
 0 <= x(15,9) <= 1
 0 <= x(9,16) <= 1
 0 <= x(16,9) <= 1
 0 <= x(9,17) <= 1
 0 <= x(17,9) <= 1
 0 <= x(9,18) <= 1
 0 <= x(18,9) <= 1
 0 <= x(9,19) <= 1
 0 <= x(19,9) <= 1
 0 <= x(9,20) <= 1
 0 <= x(20,9) <= 1
 0 <= x(10,11) <= 1
 0 <= x(11,10) <= 1
 0 <= x(10,12) <= 1
 0 <= x(12,10) <= 1
 0 <= x(10,13) <= 1
 0 <= x(13,10) <= 1
 0 <= x(10,14) <= 1
 0 <= x(14,10) <= 1
 0 <= x(10,15) <= 1
 0 <= x(15,10) <= 1
 0 <= x(10,16) <= 1
 0 <= x(16,10) <= 1
 0 <= x(10,17) <= 1
 0 <= x(17,10) <= 1
 0 <= x(10,18) <= 1
 0 <= x(18,10) <= 1
 0 <= x(10,19) <= 1
 0 <= x(19,10) <= 1
 0 <= x(10,20) <= 1
 0 <= x(20,10) <= 1
 0 <= x(11,12) <= 1
 0 <= x(12,11) <= 1
 0 <= x(11,13) <= 1
 0 <= x(13,11) <= 1
 0 <= x(11,14) <= 1
 0 <= x(14,11) <= 1
 0 <= x(11,15) <= 1
 0 <= x(15,11) <= 1
 0 <= x(11,16) <= 1
 0 <= x(16,11) <= 1
 0 <= x(11,17) <= 1
 0 <= x(17,11) <= 1
 0 <= x(11,18) <= 1
 0 <= x(18,11) <= 1
 0 <= x(11,19) <= 1
 0 <= x(19,11) <= 1
 0 <= x(11,20) <= 1
 0 <= x(20,11) <= 1
 0 <= x(12,13) <= 1
 0 <= x(13,12) <= 1
 0 <= x(12,14) <= 1
 0 <= x(14,12) <= 1
 0 <= x(12,15) <= 1
 0 <= x(15,12) <= 1
 0 <= x(12,16) <= 1
 0 <= x(16,12) <= 1
 0 <= x(12,17) <= 1
 0 <= x(17,12) <= 1
 0 <= x(12,18) <= 1
 0 <= x(18,12) <= 1
 0 <= x(12,19) <= 1
 0 <= x(19,12) <= 1
 0 <= x(12,20) <= 1
 0 <= x(20,12) <= 1
 0 <= x(13,14) <= 1
 0 <= x(14,13) <= 1
 0 <= x(13,15) <= 1
 0 <= x(15,13) <= 1
 0 <= x(13,16) <= 1
 0 <= x(16,13) <= 1
 0 <= x(13,17) <= 1
 0 <= x(17,13) <= 1
 0 <= x(13,18) <= 1
 0 <= x(18,13) <= 1
 0 <= x(13,19) <= 1
 0 <= x(19,13) <= 1
 0 <= x(13,20) <= 1
 0 <= x(20,13) <= 1
 0 <= x(14,15) <= 1
 0 <= x(15,14) <= 1
 0 <= x(14,16) <= 1
 0 <= x(16,14) <= 1
 0 <= x(14,17) <= 1
 0 <= x(17,14) <= 1
 0 <= x(14,18) <= 1
 0 <= x(18,14) <= 1
 0 <= x(14,19) <= 1
 0 <= x(19,14) <= 1
 0 <= x(14,20) <= 1
 0 <= x(20,14) <= 1
 0 <= x(15,16) <= 1
 0 <= x(16,15) <= 1
 0 <= x(15,17) <= 1
 0 <= x(17,15) <= 1
 0 <= x(15,18) <= 1
 0 <= x(18,15) <= 1
 0 <= x(15,19) <= 1
 0 <= x(19,15) <= 1
 0 <= x(15,20) <= 1
 0 <= x(20,15) <= 1
 0 <= x(16,17) <= 1
 0 <= x(17,16) <= 1
 0 <= x(16,18) <= 1
 0 <= x(18,16) <= 1
 0 <= x(16,19) <= 1
 0 <= x(19,16) <= 1
 0 <= x(16,20) <= 1
 0 <= x(20,16) <= 1
 0 <= x(17,18) <= 1
 0 <= x(18,17) <= 1
 0 <= x(17,19) <= 1
 0 <= x(19,17) <= 1
 0 <= x(17,20) <= 1
 0 <= x(20,17) <= 1
 0 <= x(18,19) <= 1
 0 <= x(19,18) <= 1
 0 <= x(18,20) <= 1
 0 <= x(20,18) <= 1
 0 <= x(19,20) <= 1
 0 <= x(20,19) <= 1
 0 <= y(1) <= 1
 0 <= y(2) <= 1
 0 <= y(3) <= 1
 0 <= y(4) <= 1
 0 <= y(5) <= 1
 0 <= y(6) <= 1
 0 <= y(7) <= 1
 0 <= y(8) <= 1
 0 <= y(9) <= 1
 0 <= y(10) <= 1
 0 <= y(11) <= 1
 0 <= y(12) <= 1
 0 <= y(13) <= 1
 0 <= y(14) <= 1
 0 <= y(15) <= 1
 0 <= y(16) <= 1
 0 <= y(17) <= 1
 0 <= y(18) <= 1
 0 <= y(19) <= 1
 0 <= y(20) <= 1

Generals
 x(1,2)
 x(2,1)
 x(1,3)
 x(3,1)
 x(1,4)
 x(4,1)
 x(1,5)
 x(5,1)
 x(1,6)
 x(6,1)
 x(1,7)
 x(7,1)
 x(1,8)
 x(8,1)
 x(1,9)
 x(9,1)
 x(1,10)
 x(10,1)
 x(1,11)
 x(11,1)
 x(1,12)
 x(12,1)
 x(1,13)
 x(13,1)
 x(1,14)
 x(14,1)
 x(1,15)
 x(15,1)
 x(1,16)
 x(16,1)
 x(1,17)
 x(17,1)
 x(1,18)
 x(18,1)
 x(1,19)
 x(19,1)
 x(1,20)
 x(20,1)
 x(2,3)
 x(3,2)
 x(2,4)
 x(4,2)
 x(2,5)
 x(5,2)
 x(2,6)
 x(6,2)
 x(2,7)
 x(7,2)
 x(2,8)
 x(8,2)
 x(2,9)
 x(9,2)
 x(2,10)
 x(10,2)
 x(2,11)
 x(11,2)
 x(2,12)
 x(12,2)
 x(2,13)
 x(13,2)
 x(2,14)
 x(14,2)
 x(2,15)
 x(15,2)
 x(2,16)
 x(16,2)
 x(2,17)
 x(17,2)
 x(2,18)
 x(18,2)
 x(2,19)
 x(19,2)
 x(2,20)
 x(20,2)
 x(3,4)
 x(4,3)
 x(3,5)
 x(5,3)
 x(3,6)
 x(6,3)
 x(3,7)
 x(7,3)
 x(3,8)
 x(8,3)
 x(3,9)
 x(9,3)
 x(3,10)
 x(10,3)
 x(3,11)
 x(11,3)
 x(3,12)
 x(12,3)
 x(3,13)
 x(13,3)
 x(3,14)
 x(14,3)
 x(3,15)
 x(15,3)
 x(3,16)
 x(16,3)
 x(3,17)
 x(17,3)
 x(3,18)
 x(18,3)
 x(3,19)
 x(19,3)
 x(3,20)
 x(20,3)
 x(4,5)
 x(5,4)
 x(4,6)
 x(6,4)
 x(4,7)
 x(7,4)
 x(4,8)
 x(8,4)
 x(4,9)
 x(9,4)
 x(4,10)
 x(10,4)
 x(4,11)
 x(11,4)
 x(4,12)
 x(12,4)
 x(4,13)
 x(13,4)
 x(4,14)
 x(14,4)
 x(4,15)
 x(15,4)
 x(4,16)
 x(16,4)
 x(4,17)
 x(17,4)
 x(4,18)
 x(18,4)
 x(4,19)
 x(19,4)
 x(4,20)
 x(20,4)
 x(5,6)
 x(6,5)
 x(5,7)
 x(7,5)
 x(5,8)
 x(8,5)
 x(5,9)
 x(9,5)
 x(5,10)
 x(10,5)
 x(5,11)
 x(11,5)
 x(5,12)
 x(12,5)
 x(5,13)
 x(13,5)
 x(5,14)
 x(14,5)
 x(5,15)
 x(15,5)
 x(5,16)
 x(16,5)
 x(5,17)
 x(17,5)
 x(5,18)
 x(18,5)
 x(5,19)
 x(19,5)
 x(5,20)
 x(20,5)
 x(6,7)
 x(7,6)
 x(6,8)
 x(8,6)
 x(6,9)
 x(9,6)
 x(6,10)
 x(10,6)
 x(6,11)
 x(11,6)
 x(6,12)
 x(12,6)
 x(6,13)
 x(13,6)
 x(6,14)
 x(14,6)
 x(6,15)
 x(15,6)
 x(6,16)
 x(16,6)
 x(6,17)
 x(17,6)
 x(6,18)
 x(18,6)
 x(6,19)
 x(19,6)
 x(6,20)
 x(20,6)
 x(7,8)
 x(8,7)
 x(7,9)
 x(9,7)
 x(7,10)
 x(10,7)
 x(7,11)
 x(11,7)
 x(7,12)
 x(12,7)
 x(7,13)
 x(13,7)
 x(7,14)
 x(14,7)
 x(7,15)
 x(15,7)
 x(7,16)
 x(16,7)
 x(7,17)
 x(17,7)
 x(7,18)
 x(18,7)
 x(7,19)
 x(19,7)
 x(7,20)
 x(20,7)
 x(8,9)
 x(9,8)
 x(8,10)
 x(10,8)
 x(8,11)
 x(11,8)
 x(8,12)
 x(12,8)
 x(8,13)
 x(13,8)
 x(8,14)
 x(14,8)
 x(8,15)
 x(15,8)
 x(8,16)
 x(16,8)
 x(8,17)
 x(17,8)
 x(8,18)
 x(18,8)
 x(8,19)
 x(19,8)
 x(8,20)
 x(20,8)
 x(9,10)
 x(10,9)
 x(9,11)
 x(11,9)
 x(9,12)
 x(12,9)
 x(9,13)
 x(13,9)
 x(9,14)
 x(14,9)
 x(9,15)
 x(15,9)
 x(9,16)
 x(16,9)
 x(9,17)
 x(17,9)
 x(9,18)
 x(18,9)
 x(9,19)
 x(19,9)
 x(9,20)
 x(20,9)
 x(10,11)
 x(11,10)
 x(10,12)
 x(12,10)
 x(10,13)
 x(13,10)
 x(10,14)
 x(14,10)
 x(10,15)
 x(15,10)
 x(10,16)
 x(16,10)
 x(10,17)
 x(17,10)
 x(10,18)
 x(18,10)
 x(10,19)
 x(19,10)
 x(10,20)
 x(20,10)
 x(11,12)
 x(12,11)
 x(11,13)
 x(13,11)
 x(11,14)
 x(14,11)
 x(11,15)
 x(15,11)
 x(11,16)
 x(16,11)
 x(11,17)
 x(17,11)
 x(11,18)
 x(18,11)
 x(11,19)
 x(19,11)
 x(11,20)
 x(20,11)
 x(12,13)
 x(13,12)
 x(12,14)
 x(14,12)
 x(12,15)
 x(15,12)
 x(12,16)
 x(16,12)
 x(12,17)
 x(17,12)
 x(12,18)
 x(18,12)
 x(12,19)
 x(19,12)
 x(12,20)
 x(20,12)
 x(13,14)
 x(14,13)
 x(13,15)
 x(15,13)
 x(13,16)
 x(16,13)
 x(13,17)
 x(17,13)
 x(13,18)
 x(18,13)
 x(13,19)
 x(19,13)
 x(13,20)
 x(20,13)
 x(14,15)
 x(15,14)
 x(14,16)
 x(16,14)
 x(14,17)
 x(17,14)
 x(14,18)
 x(18,14)
 x(14,19)
 x(19,14)
 x(14,20)
 x(20,14)
 x(15,16)
 x(16,15)
 x(15,17)
 x(17,15)
 x(15,18)
 x(18,15)
 x(15,19)
 x(19,15)
 x(15,20)
 x(20,15)
 x(16,17)
 x(17,16)
 x(16,18)
 x(18,16)
 x(16,19)
 x(19,16)
 x(16,20)
 x(20,16)
 x(17,18)
 x(18,17)
 x(17,19)
 x(19,17)
 x(17,20)
 x(20,17)
 x(18,19)
 x(19,18)
 x(18,20)
 x(20,18)
 x(19,20)
 x(20,19)
 y(1)
 y(2)
 y(3)
 y(4)
 y(5)
 y(6)
 y(7)
 y(8)
 y(9)
 y(10)
 y(11)
 y(12)
 y(13)
 y(14)
 y(15)
 y(16)
 y(17)
 y(18)
 y(19)
 y(20)

End
